NAME : amtsp
TYPE : ATSP
DIMENSION : 9
EDGE_WEIGHT_TYPE : EXPLICIT
EDGE_WEIGHT_FORMAT : FULL_MATRIX
EDGE_WEIGHT_SECTION
100000 -100000 100000 100000 100000 100000 100000 100000 100000 
100000 100000 572 492 576 314 322 518 100000 
0 0 100000 148 422 251 362 551 539 
0 0 148 100000 278 222 248 430 445 
0 0 422 278 100000 341 164 212 303 
0 0 251 222 341 100000 198 373 325 
0 0 362 248 164 198 100000 191 292 
0 0 551 430 212 373 191 100000 134 
-100000 100000 539 445 303 325 292 134 100000 
